GLPSOL--GLPK LP/MIP Solver 5.0
Parameter(s) specified in the command line:
 --lp ../modeles/3_329.lp --log 3_329.log
Reading problem data from '../modeles/3_329.lp'...
1000 rows, 1980 columns, 6924 non-zeros
987 integer variables, all of which are binary
2989 lines were read
GLPK Integer Optimizer 5.0
1000 rows, 1980 columns, 6924 non-zeros
987 integer variables, all of which are binary
Preprocessing...
978 constraint coefficient(s) were reduced
1000 rows, 1977 columns, 6921 non-zeros
987 integer variables, all of which are binary
Scaling...
 A: min|aij| =  3.695e-05  max|aij| =  4.000e+00  ratio =  1.082e+05
GM: min|aij| =  5.513e-02  max|aij| =  1.814e+01  ratio =  3.290e+02
EQ: min|aij| =  3.040e-03  max|aij| =  1.000e+00  ratio =  3.290e+02
2N: min|aij| =  2.365e-03  max|aij| =  1.774e+00  ratio =  7.502e+02
Constructing initial basis...
Size of triangular part is 1000
Solving LP relaxation...
GLPK Simplex Optimizer 5.0
1000 rows, 1977 columns, 6921 non-zeros
      0: obj =   6.000000000e+00 inf =   1.450e+01 (7)
     56: obj =   4.999491870e-01 inf =   0.000e+00 (0)
*   191: obj =  -1.732045851e+00 inf =   1.240e-15 (0)
OPTIMAL LP SOLUTION FOUND
Integer optimization begins...
Long-step dual simplex will be used
+   191: mip =     not found yet >=              -inf        (1; 0)
+   355: >>>>>  -1.732045851e+00 >=  -1.732045851e+00 < 0.1% (165; 0)
+   355: mip =  -1.732045851e+00 >=     tree is empty   0.0% (0; 329)
INTEGER OPTIMAL SOLUTION FOUND
Time used:   0.3 secs
Memory used: 2.9 Mb (3069889 bytes)
